language Essence 1.3

letting blksize_delta be
        function(1 --> 1, 2 --> 1, 3 --> 1, 4 --> 1, 5 --> 1, 6 --> 1, 7 --> 1, 8 --> 1, 9 --> 1, 10 --> 1, 11 --> 1,
                 12 --> 1)
letting maxcars be
        function(1 --> 2, 2 --> 2, 3 --> 2, 4 --> 2, 5 --> 2, 6 --> 2, 7 --> 2, 8 --> 2, 9 --> 2, 10 --> 2, 11 --> 2,
                 12 --> 2)
letting n_cars be 163
letting n_classes be 2
letting n_options be 12
letting quantity be function(1 --> 90, 2 --> 73)
letting usage be
        relation((1, 2), (1, 3), (1, 4), (1, 5), (1, 6), (1, 7), (1, 8), (1, 9), (1, 10), (1, 11), (2, 1), (2, 12))
$ Visualisation for usage
$  1  2
$  1  3
$  1  4
$  1  5
$  1  6
$  1  7
$  1  8
$  1  9
$  1 10
$  1 11
$  2  1
$  2 12

